solution status: optimal solution found
objective value:                     212240.449905639
d11(0,0)                                            1 	(obj:0)
d11(1,1)                                            1 	(obj:0)
d11(4,15)                                           1 	(obj:0)
d11(4,16)                                           1 	(obj:0)
d11(4,17)                                           1 	(obj:0)
d11(4,19)                                           1 	(obj:0)
d11(4,21)                                           1 	(obj:0)
d11(4,22)                                           1 	(obj:0)
d11(4,23)                                           1 	(obj:0)
d11(4,24)                                           1 	(obj:0)
d11(4,25)                                           1 	(obj:0)
d11(4,26)                                           1 	(obj:0)
d11(4,27)                                           1 	(obj:0)
d11(4,28)                                           1 	(obj:0)
d11(4,29)                                           1 	(obj:0)
d11(4,30)                                           1 	(obj:0)
d11(5,31)                                           1 	(obj:0)
d11(5,33)                                           1 	(obj:0)
d11(5,34)                                           1 	(obj:0)
d11(5,35)                                           1 	(obj:0)
d11(5,36)                                           1 	(obj:0)
d11(5,37)                                           1 	(obj:0)
d11(5,38)                                           1 	(obj:0)
d11(5,39)                                           1 	(obj:0)
d11(5,41)                                           1 	(obj:0)
d11(5,43)                                           1 	(obj:0)
d11(5,44)                                           1 	(obj:0)
d11(5,45)                                           1 	(obj:0)
d11(5,46)                                           1 	(obj:0)
d11(5,47)                                           1 	(obj:0)
d11(5,49)                                           1 	(obj:0)
d11(5,50)                                           1 	(obj:0)
d11(5,51)                                           1 	(obj:0)
d11(5,52)                                           1 	(obj:0)
d11(5,53)                                           1 	(obj:0)
d11(5,54)                                           1 	(obj:0)
d11(5,55)                                           1 	(obj:0)
d11(5,57)                                           1 	(obj:0)
d11(5,58)                                           1 	(obj:0)
d11(5,59)                                           1 	(obj:0)
d11(5,60)                                           1 	(obj:0)
d11(5,61)                                           1 	(obj:0)
d11(5,62)                                           1 	(obj:0)
d11(6,63)                                           1 	(obj:0)
d11(6,64)                                           1 	(obj:0)
d11(6,65)                                           1 	(obj:0)
d11(6,66)                                           1 	(obj:0)
d11(6,67)                                           1 	(obj:0)
d11(6,68)                                           1 	(obj:0)
d11(6,69)                                           1 	(obj:0)
d11(6,70)                                           1 	(obj:0)
d11(6,71)                                           1 	(obj:0)
d11(6,72)                                           1 	(obj:0)
d11(6,73)                                           1 	(obj:0)
d11(6,74)                                           1 	(obj:0)
d11(6,75)                                           1 	(obj:0)
d11(6,76)                                           1 	(obj:0)
d11(6,77)                                           1 	(obj:0)
d11(6,78)                                           1 	(obj:0)
d11(6,79)                                           1 	(obj:0)
d11(6,80)                                           1 	(obj:0)
d11(6,81)                                           1 	(obj:0)
d11(6,82)                                           1 	(obj:0)
d11(6,83)                                           1 	(obj:0)
d11(6,84)                                           1 	(obj:0)
d11(6,85)                                           1 	(obj:0)
d11(6,86)                                           1 	(obj:0)
d11(6,87)                                           1 	(obj:0)
d11(6,88)                                           1 	(obj:0)
d11(6,89)                                           1 	(obj:0)
d11(6,91)                                           1 	(obj:0)
d11(6,92)                                           1 	(obj:0)
d11(6,93)                                           1 	(obj:0)
d11(6,94)                                           1 	(obj:0)
d11(6,95)                                           1 	(obj:0)
d11(6,96)                                           1 	(obj:0)
d11(6,97)                                           1 	(obj:0)
d11(6,98)                                           1 	(obj:0)
d11(6,99)                                           1 	(obj:0)
d11(6,100)                                          1 	(obj:0)
d11(6,101)                                          1 	(obj:0)
d11(6,102)                                          1 	(obj:0)
d11(6,103)                                          1 	(obj:0)
d11(6,104)                                          1 	(obj:0)
d11(6,105)                                          1 	(obj:0)
d11(6,106)                                          1 	(obj:0)
d11(6,107)                                          1 	(obj:0)
d11(6,108)                                          1 	(obj:0)
d11(6,109)                                          1 	(obj:0)
d11(6,110)                                          1 	(obj:0)
d11(6,111)                                          1 	(obj:0)
d11(6,113)                                          1 	(obj:0)
d11(6,114)                                          1 	(obj:0)
d11(6,115)                                          1 	(obj:0)
d11(6,116)                                          1 	(obj:0)
d11(6,117)                                          1 	(obj:0)
d11(6,118)                                          1 	(obj:0)
d11(6,119)                                          1 	(obj:0)
d11(6,120)                                          1 	(obj:0)
d11(6,121)                                          1 	(obj:0)
d11(6,122)                                          1 	(obj:0)
d11(6,123)                                          1 	(obj:0)
d11(6,124)                                          1 	(obj:0)
d11(6,125)                                          1 	(obj:0)
d11(6,126)                                          1 	(obj:0)
d12(1,2)                                            1 	(obj:0)
d12(2,4)                                            1 	(obj:0)
d12(2,6)                                            1 	(obj:0)
d12(3,7)                                            1 	(obj:0)
d12(3,8)                                            1 	(obj:0)
d12(3,10)                                           1 	(obj:0)
d12(3,11)                                           1 	(obj:0)
d12(3,12)                                           1 	(obj:0)
d12(3,14)                                           1 	(obj:0)
d21(4,15)                                           1 	(obj:0)
d21(5,31)                                           1 	(obj:0)
d21(5,32)                                           1 	(obj:0)
d21(5,33)                                           1 	(obj:0)
d21(5,35)                                           1 	(obj:0)
d21(5,39)                                           1 	(obj:0)
d21(5,47)                                           1 	(obj:0)
d21(6,63)                                           1 	(obj:0)
d21(6,64)                                           1 	(obj:0)
d21(6,65)                                           1 	(obj:0)
d21(6,66)                                           1 	(obj:0)
d21(6,67)                                           1 	(obj:0)
d21(6,68)                                           1 	(obj:0)
d21(6,69)                                           1 	(obj:0)
d21(6,71)                                           1 	(obj:0)
d21(6,72)                                           1 	(obj:0)
d21(6,73)                                           1 	(obj:0)
d21(6,75)                                           1 	(obj:0)
d21(6,79)                                           1 	(obj:0)
d21(6,80)                                           1 	(obj:0)
d21(6,81)                                           1 	(obj:0)
d21(6,82)                                           1 	(obj:0)
d21(6,83)                                           1 	(obj:0)
d21(6,84)                                           1 	(obj:0)
d21(6,85)                                           1 	(obj:0)
d21(6,87)                                           1 	(obj:0)
d21(6,88)                                           1 	(obj:0)
d21(6,89)                                           1 	(obj:0)
d21(6,91)                                           1 	(obj:0)
d21(6,95)                                           1 	(obj:0)
d21(6,96)                                           1 	(obj:0)
d21(6,97)                                           1 	(obj:0)
d21(6,99)                                           1 	(obj:0)
d21(6,103)                                          1 	(obj:0)
d21(6,104)                                          1 	(obj:0)
d21(6,105)                                          1 	(obj:0)
d21(6,107)                                          1 	(obj:0)
d21(6,111)                                          1 	(obj:0)
d21(6,112)                                          1 	(obj:0)
d21(6,113)                                          1 	(obj:0)
d21(6,115)                                          1 	(obj:0)
d21(6,119)                                          1 	(obj:0)
STE(1,1)                             3563.24251433559 	(obj:0)
STE(0,0)                                         4725 	(obj:0)
STE(1,2)                             4965.74989888878 	(obj:0)
STE(2,3)                             3185.24251433559 	(obj:0)
STE(2,4)                              4501.4566002121 	(obj:0)
STE(2,5)                             4587.74989888878 	(obj:0)
STE(2,6)                             5903.96398476529 	(obj:0)
STE(3,7)                             2807.24251433563 	(obj:0)
STE(3,8)                             4225.04617788557 	(obj:0)
STE(3,9)                              4123.4566002121 	(obj:0)
STE(3,10)                            5541.26026376207 	(obj:0)
STE(3,11)                            4209.74989888882 	(obj:0)
STE(3,12)                            5627.55356243876 	(obj:0)
STE(3,13)                            5525.96398476529 	(obj:0)
STE(3,14)                            6943.76764831526 	(obj:0)
STE(4,15)                            770.992615446781 	(obj:0)
STE(4,16)                            2429.24251433563 	(obj:0)
STE(4,17)                            2188.79627899672 	(obj:0)
STE(4,18)                            3847.04617788557 	(obj:0)
STE(4,19)                            2087.20670132325 	(obj:0)
STE(4,20)                             3745.4566002121 	(obj:0)
STE(4,21)                            3505.01036487323 	(obj:0)
STE(4,22)                            5163.26026376207 	(obj:0)
STE(4,23)                            2173.49999999997 	(obj:0)
STE(4,24)                            3831.74989888882 	(obj:0)
STE(4,25)                            3591.30366354991 	(obj:0)
STE(4,26)                            5249.55356243876 	(obj:0)
STE(4,27)                            3489.71408587644 	(obj:0)
STE(4,28)                            5147.96398476529 	(obj:0)
STE(4,29)                            4907.51774942642 	(obj:0)
STE(4,30)                            6565.76764831526 	(obj:0)
STE(5,31)                           -1265.25728344207 	(obj:0)
STE(5,32)                            392.992615446781 	(obj:0)
STE(5,33)                            392.992615446787 	(obj:0)
STE(5,34)                             2051.2425143356 	(obj:0)
STE(5,35)                            152.546380107873 	(obj:0)
STE(5,36)                            1810.79627899669 	(obj:0)
STE(5,37)                            1810.79627899672 	(obj:0)
STE(5,38)                            3469.04617788554 	(obj:0)
STE(5,39)                            50.9568024344041 	(obj:0)
STE(5,40)                            1709.20670132325 	(obj:0)
STE(5,41)                            1709.20670132325 	(obj:0)
STE(5,42)                             3367.4566002121 	(obj:0)
STE(5,43)                            1468.76046598438 	(obj:0)
STE(5,44)                            3127.01036487323 	(obj:0)
STE(5,45)                            3127.01036487323 	(obj:0)
STE(5,46)                            4785.26026376207 	(obj:0)
STE(5,47)                            137.250101111126 	(obj:0)
STE(5,48)                            1795.49999999997 	(obj:0)
STE(5,49)                            1795.49999999997 	(obj:0)
STE(5,50)                            3453.74989888882 	(obj:0)
STE(5,51)                            1555.05376466107 	(obj:0)
STE(5,52)                            3213.30366354991 	(obj:0)
STE(5,53)                            3213.30366354991 	(obj:0)
STE(5,54)                            4871.55356243876 	(obj:0)
STE(5,55)                             1453.4641869876 	(obj:0)
STE(5,56)                            3111.71408587644 	(obj:0)
STE(5,57)                            3111.71408587644 	(obj:0)
STE(5,58)                            4769.96398476529 	(obj:0)
STE(5,59)                            2871.26785053757 	(obj:0)
STE(5,60)                            4529.51774942642 	(obj:0)
STE(5,61)                            4529.51774942642 	(obj:0)
STE(5,62)                            6187.76764831526 	(obj:0)
STE(6,63)                           -3301.50718233088 	(obj:0)
STE(6,64)                           -1643.25728344207 	(obj:0)
STE(6,65)                           -1643.25728344204 	(obj:0)
STE(6,66)                            14.9926154467806 	(obj:0)
STE(6,67)                           -1643.25728344203 	(obj:0)
STE(6,68)                            14.9926154467867 	(obj:0)
STE(6,69)                            14.9926154467867 	(obj:0)
STE(6,70)                            1673.24251433567 	(obj:0)
STE(6,71)                           -1883.70351878094 	(obj:0)
STE(6,72)                           -225.453619892127 	(obj:0)
STE(6,73)                           -225.453619892127 	(obj:0)
STE(6,74)                            1432.79627899669 	(obj:0)
STE(6,75)                           -225.453619892098 	(obj:0)
STE(6,76)                            1432.79627899678 	(obj:0)
STE(6,77)                            1432.79627899672 	(obj:0)
STE(6,78)                            3091.04617788554 	(obj:0)
STE(6,79)                           -1985.29309645441 	(obj:0)
STE(6,80)                           -327.043197565658 	(obj:0)
STE(6,81)                           -327.043197565567 	(obj:0)
STE(6,82)                            1331.20670132331 	(obj:0)
STE(6,83)                           -327.043197565568 	(obj:0)
STE(6,84)                            1331.20670132331 	(obj:0)
STE(6,85)                            1331.20670132328 	(obj:0)
STE(6,86)                             2989.4566002121 	(obj:0)
STE(6,87)                           -567.489432904438 	(obj:0)
STE(6,88)                            1090.76046598438 	(obj:0)
STE(6,89)                            1090.76046598441 	(obj:0)
STE(6,90)                            2749.01036487323 	(obj:0)
STE(6,91)                            1090.76046598441 	(obj:0)
STE(6,92)                            2749.01036487323 	(obj:0)
STE(6,93)                            2749.01036487325 	(obj:0)
STE(6,94)                            4407.26026376207 	(obj:0)
STE(6,95)                           -1898.99979777769 	(obj:0)
STE(6,96)                           -240.749898888874 	(obj:0)
STE(6,97)                           -240.749898888845 	(obj:0)
STE(6,98)                            1417.49999999997 	(obj:0)
STE(6,99)                           -240.749898888845 	(obj:0)
STE(6,100)                           1417.49999999997 	(obj:0)
STE(6,101)                                     1417.5 	(obj:0)
STE(6,102)                           3075.74989888882 	(obj:0)
STE(6,103)                          -481.196134227752 	(obj:0)
STE(6,104)                           1177.05376466107 	(obj:0)
STE(6,105)                           1177.05376466109 	(obj:0)
STE(6,106)                           2835.30366354991 	(obj:0)
STE(6,107)                           1177.05376466109 	(obj:0)
STE(6,108)                           2835.30366354991 	(obj:0)
STE(6,109)                           2835.30366354994 	(obj:0)
STE(6,110)                           4493.55356243876 	(obj:0)
STE(6,111)                           -582.78571190122 	(obj:0)
STE(6,112)                            1075.4641869876 	(obj:0)
STE(6,113)                           1075.46418698763 	(obj:0)
STE(6,114)                           2733.71408587644 	(obj:0)
STE(6,115)                           1075.46418698763 	(obj:0)
STE(6,116)                           2733.71408587644 	(obj:0)
STE(6,117)                           2733.71408587647 	(obj:0)
STE(6,118)                           4391.96398476529 	(obj:0)
STE(6,119)                           835.017951648755 	(obj:0)
STE(6,120)                           2493.26785053757 	(obj:0)
STE(6,121)                            2493.2678505376 	(obj:0)
STE(6,122)                           4151.51774942642 	(obj:0)
STE(6,123)                            2493.2678505376 	(obj:0)
STE(6,124)                           4151.51774942642 	(obj:0)
STE(6,125)                           4151.51774942645 	(obj:0)
STE(6,126)                           5809.76764831526 	(obj:0)
y1(6,99)                             1492.42490899994 	(obj:0)
y1(6,101)                            1492.42490899994 	(obj:0)
y1(6,103)                            1492.42490899994 	(obj:0)
y1(6,105)                            1492.42490899994 	(obj:0)
y1(6,107)                            1492.42490899994 	(obj:0)
y1(6,109)                            1492.42490899994 	(obj:0)
y1(6,111)                            1492.42490899994 	(obj:0)
y1(6,113)                            1492.42490899994 	(obj:0)
y1(6,115)                            1492.42490899994 	(obj:0)
y1(6,117)                            1492.42490899994 	(obj:0)
y1(6,119)                            1492.42490899994 	(obj:0)
y1(6,121)                            1492.42490899994 	(obj:0)
y1(6,123)                            1492.42490899994 	(obj:0)
y1(6,125)                            1492.42490899994 	(obj:0)
BG(5)                                723.522421037921 	(obj:10)
BG(6)                                4196.29249897957 	(obj:10)
AVE(1)                               3259.55177567504 	(obj:0)
WB(2)                                3259.55588804169 	(obj:0)
AVE(2)                               3259.55588804169 	(obj:0)
WB(3)                                3579.36165209166 	(obj:0)
AVE(3)                               3579.36165209166 	(obj:0)
WB(4)                                3579.36576445831 	(obj:0)
AVE(4)                               3579.36576445831 	(obj:0)
AVE(5)                               3472.77007794174 	(obj:0)
WB(6)                                 3046.3618950668 	(obj:0)
AVE(6)                                3046.3618950668 	(obj:0)
WG(1)                                3259.55177567504 	(obj:10)
WG(5)                                3472.77007794167 	(obj:10)
BG(1)                                133.635445853539 	(obj:10)
BG(2)                                2673.40993877551 	(obj:10)
BG(3)                                2568.57033333333 	(obj:10)
BG(4)                                4196.29249897959 	(obj:10)
y1(1,1)                              705.381737097969 	(obj:0)
y1(4,15)                             1492.42490899996 	(obj:0)
y1(4,17)                             1492.42490899996 	(obj:0)
y1(4,19)                             1492.42490899996 	(obj:0)
y1(4,21)                             1492.42490899996 	(obj:0)
y1(4,23)                             1492.42490899996 	(obj:0)
y1(4,25)                             1492.42490899996 	(obj:0)
y1(4,27)                             1492.42490899996 	(obj:0)
y1(4,29)                             1492.42490899996 	(obj:0)
y1(5,31)                             1492.42490899996 	(obj:0)
y1(5,33)                             1492.42490899996 	(obj:0)
y1(5,35)                             1492.42490899996 	(obj:0)
y1(5,37)                             1492.42490899996 	(obj:0)
y1(5,39)                             1492.42490899996 	(obj:0)
y1(5,41)                             1492.42490899996 	(obj:0)
y1(5,43)                             1492.42490899996 	(obj:0)
y1(5,45)                             1492.42490899996 	(obj:0)
y1(5,47)                             1492.42490899996 	(obj:0)
y1(5,49)                             1492.42490899996 	(obj:0)
y1(5,51)                             1492.42490899996 	(obj:0)
y1(5,53)                             1492.42490899996 	(obj:0)
y1(5,55)                             1492.42490899996 	(obj:0)
y1(5,57)                             1492.42490899996 	(obj:0)
y1(5,59)                             1492.42490899996 	(obj:0)
y1(5,61)                             1492.42490899996 	(obj:0)
y1(6,63)                             1492.42490899994 	(obj:0)
y1(6,65)                             1492.42490899994 	(obj:0)
y1(6,67)                             1492.42490899994 	(obj:0)
y1(6,69)                             1492.42490899994 	(obj:0)
y1(6,71)                             1492.42490899994 	(obj:0)
y1(6,73)                             1492.42490899994 	(obj:0)
y1(6,75)                             1492.42490899994 	(obj:0)
y1(6,77)                             1492.42490899994 	(obj:0)
y1(6,79)                             1492.42490899994 	(obj:0)
y1(6,81)                             1492.42490899994 	(obj:0)
y1(6,83)                             1492.42490899994 	(obj:0)
y1(6,85)                             1492.42490899994 	(obj:0)
y1(6,87)                             1492.42490899994 	(obj:0)
y1(6,89)                             1492.42490899994 	(obj:0)
y1(6,91)                             1492.42490899994 	(obj:0)
y1(6,93)                             1492.42490899994 	(obj:0)
y1(6,95)                             1492.42490899994 	(obj:0)
y1(6,97)                             1492.42490899994 	(obj:0)
y2(1,2)                              651.315683040823 	(obj:0)
y2(2,4)                              1385.48851144895 	(obj:0)
y2(2,6)                              1385.48851144895 	(obj:0)
y2(3,8)                              1492.42490899997 	(obj:0)
y2(3,10)                             1492.42490899997 	(obj:0)
y2(3,12)                             1492.42490899997 	(obj:0)
y2(3,14)                             1492.42490899997 	(obj:0)
